
100
17944

72 684
434 392
372 336
56 532
186 168
496 448
80 760
558 504
62 56
32 304
72 684
56 532
8 76
186 168
8 76
620 560
372 336
248 224
72 684
558 504
64 608
48 456
434 392
496 448
24 228
62 56
372 336
434 392
434 392
8 76
62 56
372 336
372 336
48 456
186 168
434 392
48 456
62 56
372 336
496 448
248 224
620 560
72 684
72 684
32 304
620 560
72 684
16 152
186 168
24 228
8 76
310 280
64 608
80 760
72 684
558 504
62 56
56 532
56 532
8 76
62 56
8 76
80 760
8 76
16 152
56 532
124 112
248 224
80 760
124 112
8 76
248 224
496 448
56 532
8 76
620 560
24 228
8 76
72 684
72 684
40 380
56 532
124 112
310 280
16 152
48 456
186 168
124 112
16 152
72 684
496 448
372 336
372 336
24 228
372 336
310 280
496 448
72 684
56 532
372 336
